200 1562
749 842 258 1465 817 547 482 1472 280 1141 395 89 1300 240 1105 584 1180 422 838 24 376 834 1251 666 326 1438 176 1381 391 1102 453 263 992 771 1400 1375 428 821 1317 1333 804 118 1342 1436 535 906 748 170 895 795 764 786 1358 1243 573 756 1238 186 1297 398 857 1256 322 551 1514 214 1273 1383 1158 1388 485 660 1166 1335 1172 291 1088 1151 208 73 724 917 200 1215 1233 1244 471 753 44 23 1028 1549 113 1319 1456 1101 753 1087 1033 443 1531 1130 835 1351 367 955 1525 463 1068 364 219 195 1421 545 428 570 1284 1368 644 946 887 502 1441 67 395 584 976 97 1540 998 192 1360 635 267 1274 221 73 427 382 102 1100 758 245 436 938 457 857 8 1077 133 231 889 489 236 971 348 326 373 676 1522 679 862 238 1439 222 444 743 109 1224 511 1075 569 1413 71 1455 868 1456 1140 1094 225 326 1333 1384 660 572 1102 6 695 5 1292 772 888 237 1243 1363 202 420 765 1217 953 